es_decr_min = int_search([es[1],es[11],es[6],es[9],es[7],es[5],es[12],es[4],es[3],es[8],es[2],es[10],vs[5],vs[7],vs[2],vs[10],vs[6],vs[11],vs[4],vs[12],vs[13],vs[8],vs[9],vs[1],vs[3]], input_order, indomain_min, complete);
nbV = 13;
nbE = 12;
nbT = 10;
adj = [|false,true,true,false,false,false,false,false,false,false,false,false
|false,false,false,false,false,true,false,false,false,false,false,false
|false,false,false,false,false,false,false,false,false,true,false,false
|false,false,false,false,false,false,false,true,true,false,false,false
|true,false,false,false,false,false,false,false,false,false,false,false
|false,false,false,false,false,false,false,false,false,false,true,true
|false,false,false,false,false,false,false,false,false,false,true,false
|false,false,true,false,false,false,false,false,false,false,false,false
|false,true,false,true,false,false,false,false,false,false,false,false
|true,false,false,false,true,false,false,false,false,false,false,false
|false,false,false,true,false,true,true,false,false,false,false,false
|false,false,false,false,false,false,true,false,true,true,false,false
|false,false,false,false,true,false,false,true,false,false,false,true
|];
endnodes = [|false,false,false,false,true,false,false,false,false,true,false,false,false
|true,false,false,false,false,false,false,false,true,false,false,false,false
|true,false,false,false,false,false,false,true,false,false,false,false,false
|false,false,false,false,false,false,false,false,true,false,true,false,false
|false,false,false,false,false,false,false,false,false,true,false,false,true
|false,true,false,false,false,false,false,false,false,false,true,false,false
|false,false,false,false,false,false,false,false,false,false,true,true,false
|false,false,false,true,false,false,false,false,false,false,false,false,true
|false,false,false,true,false,false,false,false,false,false,false,true,false
|false,false,true,false,false,false,false,false,false,false,false,true,false
|false,false,false,false,false,true,true,false,false,false,false,false,false
|false,false,false,false,false,true,false,false,false,false,false,false,true
|];
terminals = {1,2,3,4,5,6,7,8,9,10};
ws = [4103202,620660,694882,707657,1302562,2902654,1606529,668791,2178665,440610,3313254,1086852];
